language ESSENCE 2.0

letting pain be 
[
        [(
          1,
          (8,3),
          { ( [ (12, 13) ], (14,15) ) },
          (15, 16, 17, 18)
        )],
        [(
          1,
          (8,3),
          { ( [ (12, 13) ], (14,15) ) },
          (15, 16, 17, 18)
        )]
]
